10
-1 28 55 81 44 45 48 89 43 82 
28 -1 10 38 10 99 77 29 89 54 
55 10 -1 25 82 80 54 58 39 11 
81 38 25 -1 23 4 95 24 8 79 
44 10 82 23 -1 90 57 71 60 52 
45 99 80 4 90 -1 5 3 30 26 
48 77 54 95 57 5 -1 14 81 62 
89 29 58 24 71 3 14 -1 54 55 
43 89 39 8 60 30 81 54 -1 49 
82 54 11 79 52 26 62 55 49 -1 
